5
160
170
155
130
170
20
265 193
379 100 40
303 29 40
267 93 40
391 179 40
322 220 40
406 20 40
77 110 50
47 246 30
201 174 30
120 445 30
159 274 35
347 350 35
286 314 35
153 65 35
209 374 38
120 189 49
442 254 49
54 332 35
335 404 35
204 88 18
